
Gurobi 9.0.2 (win64) logging started Sun Dec 27 04:22:24 2020

Changed value of parameter logfile to result\SunCable-20201227T0415\scenario_2030_m30_cab0.log
   Prev:   Default: 
Gurobi Optimizer version 9.0.2 build v9.0.2rc0 (win64)
Optimize a model with 1243974 rows, 762167 columns and 3491689 nonzeros
Model fingerprint: 0x0a16c9fd
Coefficient statistics:
  Matrix range     [1e-07, 3e+05]
  Objective range  [1e+00, 1e+00]
  Bounds range     [0e+00, 0e+00]
  RHS range        [2e-05, 3e+08]
Warning: Model contains large matrix coefficient range
         Consider reformulating model or setting NumericFocus parameter
         to avoid numerical issues.

Concurrent LP optimizer: primal simplex, dual simplex, and barrier
Showing barrier log only...

Presolve removed 1077757 rows and 595936 columns
Presolve time: 2.70s
Presolved: 166217 rows, 280097 columns, 634800 nonzeros

Ordering time: 0.07s

Barrier statistics:
 Dense cols : 4
 AA' NZ     : 5.743e+05
 Factor NZ  : 2.973e+06 (roughly 200 MBytes of memory)
 Factor Ops : 6.580e+07 (less than 1 second per iteration)
 Threads    : 30

                  Objective                Residual
Iter       Primal          Dual         Primal    Dual     Compl     Time
   0  -2.03236458e+16 -1.07293238e+15  5.93e+06 2.66e+04  2.44e+12     3s
   1  -3.48400346e+15 -1.08555882e+15  1.01e+06 4.50e+06  5.67e+11     3s
   2  -1.22118840e+15 -1.02024840e+15  3.55e+05 1.27e+06  1.92e+11     4s
   3  -2.69527215e+14 -8.45430134e+14  7.90e+04 1.78e+05  4.08e+10     4s
   4  -8.25899066e+13 -5.48650762e+14  2.30e+04 5.37e+04  1.24e+10     4s
   5  -2.83775931e+13 -3.89245974e+14  7.50e+03 2.82e+04  4.86e+09     5s
   6  -1.09118308e+13 -2.72330485e+14  3.05e+03 1.41e+04  2.27e+09     5s
   7  -3.48000292e+12 -1.24082079e+14  1.03e+03 2.03e+03  6.02e+08     5s
   8   1.61214057e+11 -3.54839018e+13  2.20e+01 1.31e+02  7.36e+07     5s
   9   2.06151856e+11 -1.71559003e+12  7.70e-02 5.53e+00  3.71e+06     5s
  10   1.20755706e+11 -8.31404273e+11  2.60e-02 2.36e+00  1.79e+06     6s
  11   4.98613982e+10 -2.60030736e+11  5.25e-03 4.15e-01  5.67e+05     6s
  12   1.73827639e+10 -7.90827135e+10  1.13e-03 3.73e-08  1.74e+05     6s
  13   1.27338823e+10 -2.16820740e+10  6.97e-04 2.98e-08  6.18e+04     6s
  14   1.22992458e+10 -7.59547724e+09  6.53e-04 2.24e-08  3.57e+04     7s
  15   8.10435761e+09 -6.05267863e+08  2.48e-04 1.49e-08  1.56e+04     7s
  16   6.95215723e+09  2.45846408e+09  1.46e-04 7.45e-09  8.03e+03     7s
  17   6.56631803e+09  3.54362343e+09  1.12e-04 7.45e-09  5.40e+03     7s
  18   5.86884460e+09  4.58189066e+09  4.77e-05 4.66e-09  2.30e+03     8s
  19   5.64703241e+09  4.81134676e+09  2.69e-05 3.73e-09  1.49e+03     8s
  20   5.50457938e+09  5.05710529e+09  1.36e-05 2.79e-09  7.99e+02     8s
  21   5.48190999e+09  5.15470984e+09  1.14e-05 1.86e-09  5.84e+02     8s
  22   5.46761374e+09  5.21756136e+09  1.01e-05 2.79e-09  4.47e+02     8s
  23   5.44915189e+09  5.24089804e+09  8.49e-06 1.86e-09  3.72e+02     9s
  24   5.44394199e+09  5.27266672e+09  7.82e-06 1.86e-09  3.06e+02     9s
  25   5.42892181e+09  5.28733644e+09  6.05e-06 1.86e-09  2.53e+02     9s
  26   5.41945658e+09  5.30843316e+09  4.99e-06 1.86e-09  1.98e+02    10s
  27   5.40633045e+09  5.32429655e+09  3.43e-06 1.86e-09  1.47e+02    10s
  28   5.40016273e+09  5.34200686e+09  2.65e-06 1.86e-09  1.04e+02    10s
  29   5.39642600e+09  5.35025353e+09  2.17e-06 1.86e-09  8.25e+01    11s
  30   5.39244976e+09  5.35823316e+09  1.57e-06 1.86e-09  6.11e+01    11s
  31   5.38882368e+09  5.36413950e+09  1.03e-06 1.86e-09  4.41e+01    11s
  32   5.38666858e+09  5.37021095e+09  7.18e-07 1.86e-09  2.94e+01    12s
  33   5.38499218e+09  5.37505199e+09  4.80e-07 1.86e-09  1.78e+01    12s
  34   5.38334768e+09  5.37876291e+09  2.26e-07 1.86e-09  8.19e+00    12s
  35   5.38318457e+09  5.38032680e+09  2.03e-07 1.86e-09  5.11e+00    13s
  36   5.38305473e+09  5.38068232e+09  1.83e-07 1.86e-09  4.24e+00    13s
  37   5.38234992e+09  5.38137164e+09  9.88e-08 1.86e-09  1.75e+00    13s
  38   5.38204711e+09  5.38163440e+09  6.87e-08 1.86e-09  7.37e-01    13s
  39   5.38191550e+09  5.38176655e+09  5.61e-07 2.79e-09  2.66e-01    13s
  40   5.38187529e+09  5.38182873e+09  4.58e-07 1.86e-09  8.32e-02    14s
  41   5.38186445e+09  5.38185757e+09  9.67e-08 2.79e-09  1.23e-02    14s
  42   5.38186161e+09  5.38186118e+09  3.41e-09 2.79e-09  7.67e-04    14s
  43   5.38186151e+09  5.38186150e+09  2.98e-06 2.79e-09  3.69e-06    14s
  44   5.38186150e+09  5.38186150e+09  2.60e-06 5.59e-09  7.63e-09    15s

Barrier solved model in 44 iterations and 14.66 seconds
Optimal objective 5.38186150e+09

Crossover log...

   19243 DPushes remaining with DInf 0.0000000e+00                15s
     433 DPushes remaining with DInf 0.0000000e+00                15s
       0 DPushes remaining with DInf 0.0000000e+00                15s
Warning: Markowitz tolerance tightened to 0.5

   79108 PPushes remaining with PInf 0.0000000e+00                15s
       0 PPushes remaining with PInf 0.0000000e+00                20s

  Push phase complete: Pinf 0.0000000e+00, Dinf 3.6035499e-09     20s

Iteration    Objective       Primal Inf.    Dual Inf.      Time
   80662    5.3818615e+09   0.000000e+00   0.000000e+00     21s

Solved with barrier
Solved in 80662 iterations and 21.50 seconds
Optimal objective  5.381861505e+09
Warning: unscaled primal violation = 0.000868189 and residual = 0.000868189
